p tw 30 121
e 0 4
e 0 8
e 0 11
e 0 14
e 0 18
e 0 23
e 0 28
e 0 29
e 1 2
e 1 10
e 1 13
e 1 14
e 1 16
e 1 22
e 1 26
e 1 28
e 1 29
e 2 7
e 2 8
e 2 10
e 2 11
e 2 13
e 2 20
e 2 24
e 3 4
e 3 9
e 3 17
e 3 21
e 3 22
e 3 24
e 3 25
e 3 26
e 4 15
e 4 16
e 4 29
e 5 10
e 5 12
e 5 15
e 5 17
e 5 18
e 5 19
e 5 20
e 6 7
e 6 11
e 6 16
e 6 18
e 6 19
e 6 20
e 6 24
e 6 28
e 7 22
e 7 25
e 8 9
e 8 10
e 8 11
e 8 12
e 8 15
e 8 18
e 8 23
e 8 24
e 9 12
e 9 14
e 9 19
e 9 20
e 9 24
e 10 12
e 10 18
e 10 24
e 10 26
e 10 28
e 11 17
e 11 18
e 11 21
e 11 22
e 11 25
e 11 27
e 12 14
e 12 15
e 12 21
e 12 28
e 13 14
e 13 15
e 13 18
e 13 26
e 13 27
e 14 15
e 14 20
e 14 23
e 14 26
e 14 28
e 15 22
e 15 23
e 15 24
e 15 26
e 15 27
e 16 19
e 16 20
e 16 21
e 16 22
e 16 25
e 16 27
e 17 21
e 17 25
e 18 19
e 18 20
e 18 21
e 18 23
e 18 24
e 18 26
e 18 27
e 18 28
e 20 23
e 21 22
e 21 23
e 21 25
e 21 27
e 22 28
e 23 26
e 23 27
e 24 28
e 25 28
